
Gurobi 11.0.2 (win64, Python) logging started Wed Jul 17 20:10:41 2024

Set parameter Username
Set parameter LogFile to value "gurobi.log"
Academic license - for non-commercial use only - expires 2025-07-15

Gurobi 9.0.1 (win64, gurobi_cl) logging started 07/23/24 14:47:51

Using license file C:\Users\narsi\gurobi.lic
Set parameter LogFile to value gurobi.log
Academic license - for non-commercial use only
